NAME: random-64-13687
TYPE: TSP
COMMENT: size=64 seed=13687
DIMENSION: 130
EDGE_WEIGHT_TYPE: EUC_2D
NODE_COORD_SECTION
+0 409 463
-0 409 463
+1 633 452
-1 707 909
+2 942 12
-2 824 832
+3 673 823
-3 112 811
+4 307 888
-4 271 86
+5 203 950
-5 616 961
+6 813 807
-6 87 336
+7 221 886
-7 666 958
+8 720 526
-8 592 547
+9 847 619
-9 865 27
+10 822 808
-10 514 615
+11 896 697
-11 321 641
+12 674 728
-12 10 25
+13 58 514
-13 617 764
+14 462 610
-14 842 645
+15 507 7
-15 461 686
+16 199 644
-16 825 369
+17 752 148
-17 835 668
+18 821 902
-18 505 886
+19 568 37
-19 941 576
+20 495 973
-20 724 153
+21 878 413
-21 963 132
+22 524 559
-22 579 277
+23 747 759
-23 394 876
+24 812 20
-24 64 733
+25 149 851
-25 20 156
+26 478 818
-26 245 295
+27 173 214
-27 211 770
+28 85 648
-28 101 698
+29 212 696
-29 62 149
+30 105 233
-30 551 6
+31 916 411
-31 92 9
+32 797 32
-32 574 927
+33 455 49
-33 769 45
+34 632 851
-34 685 256
+35 158 725
-35 689 690
+36 866 412
-36 853 516
+37 995 280
-37 667 688
+38 837 255
-38 155 237
+39 645 409
-39 59 385
+40 877 182
-40 315 683
+41 470 951
-41 601 707
+42 146 953
-42 897 391
+43 514 666
-43 944 330
+44 289 930
-44 808 132
+45 894 149
-45 280 396
+46 96 433
-46 5 315
+47 320 586
-47 778 541
+48 546 322
-48 160 936
+49 267 537
-49 62 735
+50 418 348
-50 349 291
+51 207 432
-51 132 144
+52 98 837
-52 140 730
+53 541 34
-53 435 239
+54 623 509
-54 110 508
+55 976 621
-55 938 988
+56 621 869
-56 152 652
+57 15 172
-57 467 613
+58 663 473
-58 224 16
+59 606 17
-59 904 835
+60 105 939
-60 232 742
+61 522 809
-61 334 202
+62 100 952
-62 652 542
+63 248 54
-63 141 364
+64 834 39
-64 374 762
PRECEDENCE_SECTION
+0 -0
+1 -1
+2 -2
+3 -3
+4 -4
+5 -5
+6 -6
+7 -7
+8 -8
+9 -9
+10 -10
+11 -11
+12 -12
+13 -13
+14 -14
+15 -15
+16 -16
+17 -17
+18 -18
+19 -19
+20 -20
+21 -21
+22 -22
+23 -23
+24 -24
+25 -25
+26 -26
+27 -27
+28 -28
+29 -29
+30 -30
+31 -31
+32 -32
+33 -33
+34 -34
+35 -35
+36 -36
+37 -37
+38 -38
+39 -39
+40 -40
+41 -41
+42 -42
+43 -43
+44 -44
+45 -45
+46 -46
+47 -47
+48 -48
+49 -49
+50 -50
+51 -51
+52 -52
+53 -53
+54 -54
+55 -55
+56 -56
+57 -57
+58 -58
+59 -59
+60 -60
+61 -61
+62 -62
+63 -63
+64 -64
EOF
